[WorldDrop]	Terrain_World	DungeonID	Terrain_Mob	ItemKind	ItemOpt	DropRate	MinLv	MaxLv	Group	MaxDropCnt	OptPoolIdx	DurationIdx	DropSvrCh	EventDropOnly
0	1	0	0	2842	500000	6	1	200	0	0	0	0	0	0
1	1	0	0	2842	500000	6	1	200	0	0	0	0	0	0
2	1	0	0	2842	500000	6	1	200	0	0	0	0	0	0
3	1	0	0	2842	500000	6	1	200	0	0	0	0	0	0
4	1	0	0	2849	5	6	1	200	0	0	0	0	0	0
5	1	0	0	2849	5	7	1	200	0	0	0	0	0	0
6	1	0	0	2849	3	11	1	200	0	0	0	0	0	0
7	1	0	0	3083	1	2	1	200	0	0	0	0	0	0
8	1	0	0	3083	1	2	1	200	0	0	0	0	0	0
9	1	0	0	3787	1	8	1	200	0	0	0	0	0	0
10	1	0	0	3788	1	8	1	200	0	0	0	0	0	0
11	1	0	0	3789	1	6	1	200	0	0	0	0	0	0
12	1	0	0	3790	1	6	1	200	0	0	0	0	0	0
13	1	0	0	3791	1	5	1	200	0	0	0	0	0	0
14	1	0	0	3737	1	5	1	200	0	0	0	0	0	0
16	1	0	0	3904	1	5	1	200	0	0	0	0	0	0
17	2	0	0	2842	500000	6	1	200	0	0	0	0	0	0
18	2	0	0	2842	500000	6	1	200	0	0	0	0	0	0
19	2	0	0	2842	500000	6	1	200	0	0	0	0	0	0
20	2	0	0	2842	500000	6	1	200	0	0	0	0	0	0
21	2	0	0	2849	5	6	1	200	0	0	0	0	0	0
22	2	0	0	2849	5	7	1	200	0	0	0	0	0	0
23	2	0	0	2849	3	11	1	200	0	0	0	0	0	0
24	2	0	0	3083	1	2	1	200	0	0	0	0	0	0
25	2	0	0	3083	1	2	1	200	0	0	0	0	0	0
26	2	0	0	3787	1	8	1	200	0	0	0	0	0	0
27	2	0	0	3788	1	8	1	200	0	0	0	0	0	0
28	2	0	0	3789	1	6	1	200	0	0	0	0	0	0
29	2	0	0	3790	1	6	1	200	0	0	0	0	0	0
30	2	0	0	3791	1	5	1	200	0	0	0	0	0	0
31	2	0	0	3737	1	5	1	200	0	0	0	0	0	0
33	2	0	0	3904	1	5	1	200	0	0	0	0	0	0
34	3	0	0	2842	500000	6	1	200	0	0	0	0	0	0
35	3	0	0	2842	500000	6	1	200	0	0	0	0	0	0
36	3	0	0	2842	500000	6	1	200	0	0	0	0	0	0
37	3	0	0	2842	500000	6	1	200	0	0	0	0	0	0
38	3	0	0	2849	5	6	1	200	0	0	0	0	0	0
39	3	0	0	2849	5	7	1	200	0	0	0	0	0	0
40	3	0	0	2849	3	11	1	200	0	0	0	0	0	0
41	3	0	0	3083	1	2	1	200	0	0	0	0	0	0
42	3	0	0	3083	1	2	1	200	0	0	0	0	0	0
43	3	0	0	3787	1	8	1	200	0	0	0	0	0	0
44	3	0	0	3788	1	8	1	200	0	0	0	0	0	0
45	3	0	0	3789	1	6	1	200	0	0	0	0	0	0
46	3	0	0	3790	1	6	1	200	0	0	0	0	0	0
47	3	0	0	3791	1	5	1	200	0	0	0	0	0	0
48	3	0	0	3737	1	5	1	200	0	0	0	0	0	0
50	3	0	0	3904	1	5	1	200	0	0	0	0	0	0
51	8	0	0	2842	500000	6	1	200	0	0	0	0	0	0
52	8	0	0	2842	500000	6	1	200	0	0	0	0	0	0
53	8	0	0	2842	500000	6	1	200	0	0	0	0	0	0
54	8	0	0	2842	500000	6	1	200	0	0	0	0	0	0
55	8	0	0	2849	5	6	1	200	0	0	0	0	0	0
56	8	0	0	2849	5	7	1	200	0	0	0	0	0	0
57	8	0	0	2849	3	11	1	200	0	0	0	0	0	0
58	8	0	0	3083	1	2	1	200	0	0	0	0	0	0
59	8	0	0	3083	1	2	1	200	0	0	0	0	0	0
60	8	0	0	3787	1	8	1	200	0	0	0	0	0	0
61	8	0	0	3788	1	8	1	200	0	0	0	0	0	0
62	8	0	0	3789	1	6	1	200	0	0	0	0	0	0
63	8	0	0	3790	1	6	1	200	0	0	0	0	0	0
64	8	0	0	3791	1	5	1	200	0	0	0	0	0	0
65	8	0	0	3737	1	5	1	200	0	0	0	0	0	0
67	8	0	0	3904	1	5	1	200	0	0	0	0	0	0
68	5	0	0	2842	500000	6	1	200	0	0	0	0	0	0
69	5	0	0	2842	500000	6	1	200	0	0	0	0	0	0
70	5	0	0	2842	500000	6	1	200	0	0	0	0	0	0
71	5	0	0	2842	500000	6	1	200	0	0	0	0	0	0
72	5	0	0	2849	5	6	1	200	0	0	0	0	0	0
73	5	0	0	2849	5	7	1	200	0	0	0	0	0	0
74	5	0	0	2849	3	11	1	200	0	0	0	0	0	0
75	5	0	0	3083	1	2	1	200	0	0	0	0	0	0
76	5	0	0	3083	1	2	1	200	0	0	0	0	0	0
77	5	0	0	3787	1	8	1	200	0	0	0	0	0	0
78	5	0	0	3788	1	8	1	200	0	0	0	0	0	0
79	5	0	0	3789	1	6	1	200	0	0	0	0	0	0
80	5	0	0	3790	1	6	1	200	0	0	0	0	0	0
81	5	0	0	3791	1	5	1	200	0	0	0	0	0	0
82	5	0	0	3737	1	5	1	200	0	0	0	0	0	0
84	5	0	0	3904	1	5	1	200	0	0	0	0	0	0
